100
128
33
20
18
30
23
38
37
16
21
50
29
25
4
30
43
55
32
64
49
45
33
32
57
38
22
9
16
29
56
12
36
42
16
34
39
30
59
61
21
46
30
10
34
20
49
25
13
34
47
19
15
44
23
61
7
63
27
47
44
56
19
26
38
37
1
26
22
16
39
59
27
51
64
22
22
23
31
42
55
20
17
24
50
26
28
31
30
29
38
63
64
50
38
43
21
63
48
32
48
40